n_machines = 10;
n_resources = 15;
n_jobs = 118;
horizon = 57591;
LB = 9462;
n_jobs_per_resource = [9, 3, 2, 7, 5, 3, 7, 4, 16, 5, 15, 18, 7, 11, 6];
duration = [693, 632, 96, 340, 937, 526, 86, 367, 239, 675, 577, 293, 393, 301, 969, 496, 550, 516, 796, 566, 254, 703, 228, 188, 96, 263, 280, 559, 518, 917, 629, 317, 113, 199, 281, 810, 639, 197, 597, 607, 973, 218, 236, 748, 378, 270, 108, 542, 779, 760, 239, 732, 756, 593, 86, 619, 937, 84, 395, 890, 514, 97, 242, 448, 660, 321, 244, 961, 330, 787, 391, 279, 199, 157, 805, 604, 742, 327, 14, 798, 264, 425, 493, 836, 761, 772, 413, 85, 816, 278, 534, 704, 513, 687, 816, 781, 217, 672, 970, 794, 597, 28, 568, 34, 840, 199, 679, 313, 55, 91, 885, 434, 874, 241, 906, 329, 145, 836]